************************************************************************
file with basedata            : me11_.bas
initial value random generator: 9668
************************************************************************
projects                      :  1
jobs (incl. supersource/sink ):  14
horizon                       :  95
RESOURCES
  - renewable                 :  2   R
  - nonrenewable              :  0   N
  - doubly constrained        :  0   D
************************************************************************
PROJECT INFORMATION:
pronr.  #jobs rel.date duedate tardcost  MPM-Time
    1     12      0       16        2       16
************************************************************************
PRECEDENCE RELATIONS:
jobnr.    #modes  #successors   successors
   1        1          3           2   3   4
   2        3          3           6   9  11
   3        3          3           5   7   9
   4        3          3           6   8   9
   5        3          3           6   8  13
   6        3          1          12
   7        3          2          11  13
   8        3          1          10
   9        3          2          12  13
  10        3          2          11  12
  11        3          1          14
  12        3          1          14
  13        3          1          14
  14        1          0        
************************************************************************
REQUESTS/DURATIONS:
jobnr. mode duration  R 1  R 2
------------------------------------------------------------------------
  1      1     0       0    0
  2      1     3       0    6
         2     5       6    0
         3     7       4    0
  3      1     3       7    0
         2     8       4    0
         3     8       0    6
  4      1     2       8    0
         2     5       7    0
         3     7       5    0
  5      1     3       3    0
         2     3       0    7
         3     8       0    5
  6      1     4       5    0
         2     5       4    0
         3     8       0    3
  7      1     1       9    0
         2     2       0    5
         3     9       6    0
  8      1     4       0    6
         2     9       0    5
         3    10       2    0
  9      1     4       5    0
         2     4       0    6
         3    10       0    3
 10      1     1       0    6
         2     3       0    5
         3     4       6    0
 11      1     5       9    0
         2     8       0    7
         3     9       8    0
 12      1     3       3    0
         2     4       0    9
         3     6       1    0
 13      1     8       4    0
         2     8       0    4
         3     9       0    3
 14      1     0       0    0
************************************************************************
RESOURCEAVAILABILITIES:
  R 1  R 2
   17   15
************************************************************************
